50
22286

483 137
559 492
556 903
656 886
583 719
294 692
835 191
899 294
784 572
431 188
180 32
142 95
567 57
105 267
35 244
37 584
708 180
458 384
737 463
797 788
600 143
951 407
668 748
483 636
385 133
685 977
156 72
899 429
379 35
173 167
193 90
796 119
152 742
429 523
151 812
149 187
299 503
204 877
71 370
669 628
727 232
862 78
845 495
912 62
306 643
309 940
646 977
452 956
653 904
465 871
